# Objective value = 5041.62
I_0_0 1540
I_0_1 1.8949999999999998e+03
I_0_2 1647
I_0_3 2.2870000000000005e+03
I_1_0 96
I_1_1 0
I_1_2 96
I_1_3 1.0658141036401503e-14
I_2_0 89
I_2_1 89
I_2_2 89
I_2_3 0
I_3_0 154
I_3_1 154
I_3_2 77
I_3_3 0
I_4_0 67
I_4_1 0
I_4_2 67
I_4_3 -1.4876988529977098e-14
I_5_0 166
I_5_1 83
I_5_2 166
I_5_3 8.2999999999999986e+01
I_6_0 89
I_6_1 89
I_6_2 8.8999999999999986e+01
I_6_3 0
I_7_0 78
I_7_1 3.9000000000000007e+01
I_7_2 7.7999999999999986e+01
I_7_3 3.8999999999999972e+01
I_8_0 39
I_8_1 3.4638958368304884e-14
I_8_2 3.8999999999999950e+01
I_8_3 0
I_9_0 62
I_9_1 3.0999999999999979e+01
I_9_2 6.2000000000000021e+01
I_9_3 3.1000000000000021e+01
I_10_0 60
I_10_1 5.9999999999999993e+01
I_10_2 3.0000000000000021e+01
I_10_3 2.1316282072803006e-14
q_1_0 0
q_1_1 192
q_1_2 1.0658141036401503e-14
q_2_0 89
q_2_1 89
q_2_2 0
q_3_0 77
q_3_1 0
q_3_2 0
q_4_0 0
q_4_1 134
q_4_2 -1.4876988529977098e-14
q_5_0 0
q_5_1 166
q_5_2 0
q_6_0 89
q_6_1 8.8999999999999986e+01
q_6_2 1.4210854715202004e-14
q_7_0 4.3298697960381105e-15
q_7_1 7.7999999999999986e+01
q_7_2 -1.4210854715202004e-14
q_8_0 3.4638958368304884e-14
q_8_1 7.7999999999999915e+01
q_8_2 4.9737991503207013e-14
q_9_0 -2.0650148258027912e-14
q_9_1 6.2000000000000014e+01
q_9_2 -1.7763568394002505e-15
q_10_0 2.9999999999999993e+01
q_10_1 1.0658141036401503e-14
q_10_2 0
y_0_0 1
y_0_1 1
y_0_2 0
y_1_0 0
y_1_1 1
y_1_2 1.1102230246251565e-16
y_2_0 1
y_2_1 1
y_2_2 0
y_3_0 1
y_3_1 0
y_3_2 0
y_4_0 0
y_4_1 1
y_4_2 -2.2204460492503131e-16
y_5_0 0
y_5_1 9.9999999999999989e-01
y_5_2 0
y_6_0 1
y_6_1 9.9999999999999989e-01
y_6_2 0
y_7_0 1.1102230246251565e-16
y_7_1 9.9999999999999978e-01
y_7_2 0
y_8_0 8.8817841970012523e-16
y_8_1 9.9999999999999867e-01
y_8_2 0
y_9_0 -6.6613381477509392e-16
y_9_1 1
y_9_2 1.1102230246251565e-16
y_10_0 9.9999999999999978e-01
y_10_1 2.2204460492503131e-16
y_10_2 0
x_0_1_0 0
x_0_1_1 0
x_0_1_2 0
x_0_2_0 0
x_0_2_1 1.0000000000000004e+00
x_0_2_2 0
x_0_3_0 -3.7747582837255322e-15
x_0_3_1 0
x_0_3_2 0
x_0_4_0 0
x_0_4_1 -4.7184478546569153e-16
x_0_4_2 0
x_0_5_0 0
x_0_5_1 0
x_0_5_2 0
x_0_6_0 0.999999999999999
x_0_6_1 9.9999999999999989e-01
x_0_6_2 0
x_0_7_0 0
x_0_7_1 0
x_0_7_2 0
x_0_8_0 0
x_0_8_1 0
x_0_8_2 0
x_0_9_0 -8.8817841970012523e-16
x_0_9_1 0
x_0_9_2 0
x_0_10_0 1.0000000000000002e+00
x_0_10_1 1.1102230246251565e-16
x_0_10_2 0
x_1_2_0 0
x_1_2_1 1.0000000000000002e+00
x_1_2_2 0
x_1_3_0 6.6613381477509392e-16
x_1_3_1 0
x_1_3_2 0
x_1_4_0 0
x_1_4_1 0
x_1_4_2 0
x_1_5_0 0
x_1_5_1 0
x_1_5_2 0
x_1_6_0 0
x_1_6_1 0
x_1_6_2 0
x_1_7_0 0
x_1_7_1 -4.4408920985006262e-16
x_1_7_2 2.2204460492503131e-16
x_1_8_0 0
x_1_8_1 0
x_1_8_2 0
x_1_9_0 -4.4408920985006262e-16
x_1_9_1 1.0000000000000007e+00
x_1_9_2 1.1102230246251565e-16
x_1_10_0 0
x_1_10_1 0
x_1_10_2 0
x_2_3_0 1
x_2_3_1 0
x_2_3_2 0
x_2_4_0 0
x_2_4_1 0
x_2_4_2 0
x_2_5_0 0
x_2_5_1 0
x_2_5_2 0
x_2_6_0 0
x_2_6_1 0
x_2_6_2 0
x_2_7_0 0
x_2_7_1 0
x_2_7_2 0
x_2_8_0 0
x_2_8_1 0
x_2_8_2 0
x_2_9_0 0
x_2_9_1 -6.6613381477509392e-16
x_2_9_2 0
x_2_10_0 9.9999999999999967e-01
x_2_10_1 5.5511151231257827e-16
x_2_10_2 0
x_3_4_0 0
x_3_4_1 0
x_3_4_2 0
x_3_5_0 0
x_3_5_1 0
x_3_5_2 0
x_3_6_0 1.0000000000000042e+00
x_3_6_1 0
x_3_6_2 0
x_3_7_0 0
x_3_7_1 0
x_3_7_2 0
x_3_8_0 0
x_3_8_1 0
x_3_8_2 0
x_3_9_0 0
x_3_9_1 0
x_3_9_2 0
x_3_10_0 0
x_3_10_1 0
x_3_10_2 0
x_4_5_0 0
x_4_5_1 9.9999999999999989e-01
x_4_5_2 -2.2204460492503131e-16
x_4_6_0 0
x_4_6_1 0
x_4_6_2 0
x_4_7_0 0
x_4_7_1 1.0000000000000002e+00
x_4_7_2 -2.2204460492503131e-16
x_4_8_0 0
x_4_8_1 -1.9984014443252818e-15
x_4_8_2 0
x_4_9_0 0
x_4_9_1 -4.1633363423443370e-17
x_4_9_2 0
x_4_10_0 0
x_4_10_1 0
x_4_10_2 0
x_5_6_0 0
x_5_6_1 0
x_5_6_2 1.7763568394002505e-15
x_5_7_0 0
x_5_7_1 0
x_5_7_2 0
x_5_8_0 0
x_5_8_1 9.9999999999999989e-01
x_5_8_2 1.1102230246251565e-15
x_5_9_0 0
x_5_9_1 0
x_5_9_2 0
x_5_10_0 0
x_5_10_1 0
x_5_10_2 0
x_6_7_0 0
x_6_7_1 0
x_6_7_2 0
x_6_8_0 1.7763568394002505e-15
x_6_8_1 9.9999999999999989e-01
x_6_8_2 -1.7763568394002505e-15
x_6_9_0 0
x_6_9_1 0
x_6_9_2 0
x_6_10_0 0
x_6_10_1 0
x_6_10_2 0
x_7_8_0 0
x_7_8_1 0
x_7_8_2 0
x_7_9_0 0
x_7_9_1 1.0000000000000004e+00
x_7_9_2 0
x_7_10_0 0
x_7_10_1 0
x_7_10_2 0
x_8_9_0 0
x_8_9_1 0
x_8_9_2 0
x_8_10_0 0
x_8_10_1 0
x_8_10_2 0
x_9_10_0 0
x_9_10_1 0
x_9_10_2 0
